Optimal - objective value 76.00000000
      0 X0                    76                       1
      1 X1                     1                       0
      2 X2                     1                       0
      3 X3                     1                       0
     32 X992                   5                       0
     34 X32                    1                       0
     35 X34                    1                       0
     64 X991                   2                       0
     65 X33                    1                       0
     66 X63                    1                       0
     67 X64                    1                       0
     68 X66                    1                       0
     96 X990                   6                       0
    100 X96                    1                       0
    101 X98                    1                       0
    128 X989                   2                       0
    129 X97                    1                       0
    133 X128                   1                       0
    134 X130                   1                       0
    160 X988                   2                       0
    161 X129                   1                       0
    166 X160                   1                       0
    167 X162                   1                       0
    192 X987                   2                       0
    193 X161                   1                       0
    199 X192                   1                       0
    200 X194                   1                       0
    224 X986                   2                       0
    225 X193                   1                       0
    232 X224                   1                       0
    233 X226                   1                       0
    256 X985                   2                       0
    257 X225                   1                       0
    265 X256                   1                       0
    266 X258                   1                       0
    288 X984                   2                       0
    289 X257                   1                       0
    298 X288                   1                       0
    299 X290                   1                       0
    320 X983                   2                       0
    321 X289                   1                       0
    331 X320                   1                       0
    332 X322                   1                       0
    352 X982                   2                       0
    353 X321                   1                       0
    364 X352                   1                       0
    365 X354                   1                       0
    384 X981                   2                       0
    385 X353                   1                       0
    397 X384                   1                       0
    398 X386                   1                       0
    416 X980                   2                       0
    417 X385                   1                       0
    430 X416                   1                       0
    431 X418                   1                       0
    448 X979                   2                       0
    449 X417                   1                       0
    463 X448                   1                       0
    464 X450                   1                       0
    480 X978                   2                       0
    481 X449                   1                       0
    496 X480                   1                       0
    497 X482                   1                       0
    512 X977                   2                       0
    513 X481                   1                       0
    529 X512                   1                       0
    530 X514                   1                       0
    544 X976                   2                       0
    545 X513                   1                       0
    562 X544                   1                       0
    563 X546                   1                       0
    576 X975                   2                       0
    577 X545                   1                       0
    595 X576                   1                       0
    596 X578                   1                       0
    608 X974                   2                       0
    609 X577                   1                       0
    628 X608                   1                       0
    629 X610                   1                       0
    640 X973                   2                       0
    641 X609                   1                       0
    661 X640                   1                       0
    662 X642                   1                       0
    672 X972                   2                       0
    673 X641                   1                       0
    694 X672                   1                       0
    695 X674                   1                       0
    704 X971                   2                       0
    705 X673                   1                       0
    727 X704                   1                       0
    728 X706                   1                       0
    736 X970                   2                       0
    737 X705                   1                       0
    760 X736                   1                       0
    761 X738                   1                       0
    768 X969                   2                       0
    769 X737                   1                       0
    793 X768                   1                       0
    794 X770                   1                       0
    800 X968                   2                       0
    801 X769                   1                       0
    826 X800                   1                       0
    827 X802                   1                       0
    832 X967                   2                       0
    833 X801                   1                       0
    859 X832                   1                       0
    860 X834                   1                       0
    864 X966                   2                       0
    865 X833                   1                       0
    892 X864                   1                       0
    893 X866                   1                       0
    896 X965                   2                       0
    897 X865                   1                       0
    925 X896                   1                       0
    926 X898                   1                       0
    927 X899                   1                       0
    928 X964                   6                       0
    958 X928                   1                       0
    959 X930                   1                       0
    960 X963                   2                       0
    961 X929                   1                       0
    989 X959                   1                       0
    990 X960                   1                       0
    991 X962                   5                       0
    992 X961                   1                       0
   1021 X1021                  1                       0
   1022 X1022                  1                       0
   1023 X1023                  1                       0
   1052 X1052                  1                       0
   1053 X1053                  1                       0
   1054 X1054                  1                       0
   1082 X1082                  1                       0
   1084 X1084                  1                       0
   1085 X1085                  1                       0
   1112 X1112                  1                       0
   1113 X1113                  1                       0
   1114 X1114                  1                       0
   1142 X1142                  1                       0
   1143 X1143                  1                       0
   1144 X1144                  1                       0
   1172 X1172                  1                       0
   1173 X1173                  1                       0
   1174 X1174                  1                       0
   1202 X1202                  1                       0
   1203 X1203                  1                       0
   1204 X1204                  1                       0
   1232 X1232                  1                       0
   1233 X1233                  1                       0
   1234 X1234                  1                       0
   1262 X1262                  1                       0
   1263 X1263                  1                       0
   1264 X1264                  1                       0
   1292 X1292                  1                       0
   1293 X1293                  1                       0
   1294 X1294                  1                       0
   1322 X1322                  1                       0
   1323 X1323                  1                       0
   1324 X1324                  1                       0
   1352 X1352                  1                       0
   1353 X1353                  1                       0
   1354 X1354                  1                       0
   1382 X1382                  1                       0
   1383 X1383                  1                       0
   1384 X1384                  1                       0
   1412 X1412                  1                       0
   1413 X1413                  1                       0
   1414 X1414                  1                       0
   1442 X1442                  1                       0
   1443 X1443                  1                       0
   1444 X1444                  1                       0
   1472 X1472                  1                       0
   1473 X1473                  1                       0
   1474 X1474                  1                       0
   1502 X1502                  1                       0
   1503 X1503                  1                       0
   1504 X1504                  1                       0
   1532 X1532                  1                       0
   1533 X1533                  1                       0
   1534 X1534                  1                       0
   1562 X1562                  1                       0
   1563 X1563                  1                       0
   1564 X1564                  1                       0
   1592 X1592                  1                       0
   1593 X1593                  1                       0
   1594 X1594                  1                       0
   1622 X1622                  1                       0
   1623 X1623                  1                       0
   1624 X1624                  1                       0
   1652 X1652                  1                       0
   1653 X1653                  1                       0
   1654 X1654                  1                       0
   1682 X1682                  1                       0
   1683 X1683                  1                       0
   1684 X1684                  1                       0
   1712 X1712                  1                       0
   1713 X1713                  1                       0
   1714 X1714                  1                       0
   1742 X1742                  1                       0
   1743 X1743                  1                       0
   1744 X1744                  1                       0
   1772 X1772                  1                       0
   1773 X1773                  1                       0
   1774 X1774                  1                       0
   1802 X1802                  1                       0
   1803 X1803                  1                       0
   1804 X1804                  1                       0
   1832 X1832                  1                       0
   1833 X1833                  1                       0
   1834 X1834                  1                       0
   1861 X1861                  1                       0
   1862 X1862                  1                       0
   1864 X1864                  1                       0
   1892 X1892                  1                       0
   1893 X1893                  1                       0
   1894 X1894                  1                       0
   1923 X1923                  1                       0
   1924 X1924                  1                       0
   1925 X1925                  1                       0
   1982 X1982                  1                       0
   1983 X1983                  1                       0
   1984 X1984                  1                       0
   2013 X2013                  1                       0
   2014 X2014                  1                       0
   2015 X2015                  1                       0
   2043 X2043                  1                       0
   2045 X2045                  1                       0
   2046 X2046                  1                       0
   2073 X2073                  1                       0
   2074 X2074                  1                       0
   2075 X2075                  1                       0
   2103 X2103                  1                       0
   2104 X2104                  1                       0
   2105 X2105                  1                       0
   2133 X2133                  1                       0
   2134 X2134                  1                       0
   2135 X2135                  1                       0
   2163 X2163                  1                       0
   2164 X2164                  1                       0
   2165 X2165                  1                       0
   2193 X2193                  1                       0
   2194 X2194                  1                       0
   2195 X2195                  1                       0
   2223 X2223                  1                       0
   2224 X2224                  1                       0
   2225 X2225                  1                       0
   2253 X2253                  1                       0
   2254 X2254                  1                       0
   2255 X2255                  1                       0
   2283 X2283                  1                       0
   2284 X2284                  1                       0
   2285 X2285                  1                       0
   2313 X2313                  1                       0
   2314 X2314                  1                       0
   2315 X2315                  1                       0
   2343 X2343                  1                       0
   2344 X2344                  1                       0
   2345 X2345                  1                       0
   2373 X2373                  1                       0
   2374 X2374                  1                       0
   2375 X2375                  1                       0
   2403 X2403                  1                       0
   2404 X2404                  1                       0
   2405 X2405                  1                       0
   2433 X2433                  1                       0
   2434 X2434                  1                       0
   2435 X2435                  1                       0
   2463 X2463                  1                       0
   2464 X2464                  1                       0
   2465 X2465                  1                       0
   2493 X2493                  1                       0
   2494 X2494                  1                       0
   2495 X2495                  1                       0
   2523 X2523                  1                       0
   2524 X2524                  1                       0
   2525 X2525                  1                       0
   2553 X2553                  1                       0
   2554 X2554                  1                       0
   2555 X2555                  1                       0
   2583 X2583                  1                       0
   2584 X2584                  1                       0
   2585 X2585                  1                       0
   2613 X2613                  1                       0
   2614 X2614                  1                       0
   2615 X2615                  1                       0
   2643 X2643                  1                       0
   2644 X2644                  1                       0
   2645 X2645                  1                       0
   2673 X2673                  1                       0
   2674 X2674                  1                       0
   2675 X2675                  1                       0
   2703 X2703                  1                       0
   2704 X2704                  1                       0
   2705 X2705                  1                       0
   2733 X2733                  1                       0
   2734 X2734                  1                       0
   2735 X2735                  1                       0
   2763 X2763                  1                       0
   2764 X2764                  1                       0
   2765 X2765                  1                       0
   2793 X2793                  1                       0
   2794 X2794                  1                       0
   2795 X2795                  1                       0
   2822 X2822                  1                       0
   2823 X2823                  1                       0
   2825 X2825                  1                       0
   2853 X2853                  1                       0
   2854 X2854                  1                       0
   2855 X2855                  1                       0
   2884 X2884                  1                       0
   2885 X2885                  1                       0
   2886 X2886                  1                       0
